297 1025
225 912
299 270
52 762
115 772
9 689
169 1047
269 447
297 1067
256 516
134 1495
153 1404
19 1346
9 1284
21 1211
179 807
225 1456
214 51
108 507
240 522
123 169
298 419
1 620
276 416
177 1353
265 533
44 369
283 276
117 1378
144 330
198 498
169 1215
247 1217
22 479
206 1499
19 775
173 551
105 138
143 770
243 78
113 643
9 949
240 257
48 1279
137 510
102 276
295 1257
209 374
81 1150
68 1377
202 1082
93 687
183 53
20 744
293 641
187 1168
245 1331
188 658
101 1149
211 511
280 916
179 1154
88 221
191 909
39 1161
233 1444
196 556
171 59
130 229
244 595
68 1018
234 557
177 1312
79 1219
105 1094
178 811
59 355
239 501
57 461
50 1195
5 377
126 812
220 595
283 419
210 1194
235 1302
130 830
227 276
77 792
191 519
259 1045
267 1020
148 217
21 805
264 870
134 1333
144 540
92 26
78 1087
95 88
